Assets/LKHProbs~/skull.24.tsp
NAME : GeneratedProblem
COMMENT : SVGCrosshatch
TYPE : TSP
DIMENSION : 15
EDGE_WEIGHT_TYPE : EUC_2D
NODE_COORD_SECTION
1 6800 11300
2 6800 11400
3 6900 11100
4 6900 11200
5 7000 10900
6 7000 11000
7 7000 11100
8 7100 10700
9 7100 10800
10 7100 10900
11 7100 11000
12 7200 10700
13 7200 10800
14 7200 10900
15 7300 10900
EOF
