Assets/LKHProbs~/skull.24.out.txt
NAME : GeneratedProblem.1953.tour
COMMENT : Length = 1953
COMMENT : Found by LKH [Keld Helsgaun] Sun Nov 25 13:17:33 2018
TYPE : TOUR
DIMENSION : 15
TOUR_SECTION
1
2
4
7
11
14
15
13
12
8
9
10
5
6
3
-1
EOF
